(set-info :source |printed by MathSAT|)
(declare-fun p2 () Int)
(declare-fun call_ticket3i.s () Int)
(declare-fun call_ticket3i.ite22 () Int)
(declare-fun call_ticket3i.ite10 () Int)
(declare-fun param_e7 () Bool)
(declare-fun call_ticket3i.ite34 () Int)
(declare-fun call_ticket3i.ite26 () Int)
(declare-fun p1 () Int)
(declare-fun a1 () Int)
(declare-fun call_ticket3i.ite17 () Int)
(declare-fun param_e6 () Bool)
(declare-fun call_ticket3i.ite4 () Int)
(declare-fun param_init_a2 () Int)
(declare-fun call_ticket3i.ite30 () Int)
(declare-fun call_ticket3i.ite7 () Int)
(declare-fun call_excludes9.excludes () Bool)
(declare-fun call_Sofar.Sofar () Bool)
(declare-fun param_e1 () Bool)
(declare-fun call_ticket3i.ite36 () Int)
(declare-fun param_init_a3 () Int)
(declare-fun call_ticket3i.ite20 () Int)
(declare-fun call_ticket3i.t () Int)
(declare-fun call_ticket3i.ite19 () Int)
(declare-fun erreur_ticket3i () Bool)
(declare-fun call_ticket3i.ite28 () Int)
(declare-fun call_ticket3i.p2 () Int)
(declare-fun call_ticket3i.ite35 () Int)
(declare-fun call_ticket3i.flby4 () Int)
(declare-fun call_ticket3i.a3 () Int)
(declare-fun call_ticket3i.p1 () Int)
(declare-fun call_ticket3i.ite23 () Int)
(declare-fun call_ticket3i.ite9 () Int)
(declare-fun param_e9 () Bool)
(declare-fun call_ticket3i.ite21 () Int)
(declare-fun call_ticket3i.ite14 () Int)
(declare-fun param_e4 () Bool)
(declare-fun call_ticket3i.ite13 () Int)
(declare-fun call_ticket3i.a1 () Int)
(declare-fun call_ticket3i.g3 () Bool)
(declare-fun call_ticket3i.ite8 () Int)
(declare-fun call_Sofar.flby () Bool)
(declare-fun a2 () Int)
(declare-fun call_ticket3i.ite2 () Int)
(declare-fun env () Bool)
(declare-fun call_ticket3i.ite18 () Int)
(declare-fun call_ticket3i.flby3 () Int)
(declare-fun call_ticket3i.flby2 () Int)
(declare-fun param_init_a1 () Int)
(declare-fun call_ticket3i.ite31 () Int)
(declare-fun p3 () Int)
(declare-fun call_ticket3i.ite3 () Int)
(declare-fun _OK_ () Bool)
(declare-fun call_ticket3i.g9 () Bool)
(declare-fun call_ticket3i.ite29 () Int)
(declare-fun s () Int)
(declare-fun call_ticket3i.ite6 () Int)
(declare-fun param_e8 () Bool)
(declare-fun call_ticket3i.g1 () Bool)
(declare-fun call_ticket3i.p3 () Int)
(declare-fun call_ticket3i.ite () Bool)
(declare-fun call_ticket3i.g5 () Bool)
(declare-fun param_e3 () Bool)
(declare-fun call_ticket3i.g2 () Bool)
(declare-fun call_ticket3i.g8 () Bool)
(declare-fun param_e2 () Bool)
(declare-fun call_ticket3i.flby5 () Int)
(declare-fun t () Int)
(declare-fun call_ticket3i.flby8 () Int)
(declare-fun call_ticket3i.ite32 () Int)
(declare-fun call_ticket3i.g7 () Bool)
(declare-fun call_ticket3i.ite25 () Int)
(declare-fun param_e5 () Bool)
(declare-fun call_ticket3i.ite33 () Int)
(declare-fun call_ticket3i.ite24 () Int)
(declare-fun call_ticket3i.ite27 () Int)
(declare-fun call_ticket3i.ite16 () Int)
(declare-fun call_ticket3i.ite11 () Int)
(declare-fun call_ticket3i.flby () Int)
(declare-fun call_ticket3i.flby7 () Int)
(declare-fun call_ticket3i.ite5 () Int)
(declare-fun call_ticket3i.a2 () Int)
(declare-fun call_ticket3i.g4 () Bool)
(declare-fun param_init_t () Int)
(declare-fun call_ticket3i.flby6 () Int)
(declare-fun call_ticket3i.g6 () Bool)
(declare-fun a3 () Int)
(declare-fun call_ticket3i.ite15 () Int)
(declare-fun call_ticket3i.erreur_ticket3i () Bool)
(declare-fun call_ticket3i.ite37 () Int)
(declare-fun call_ticket3i.ite12 () Int)
(define-fun .def_1304 () Bool (= call_Sofar.flby call_Sofar.Sofar))
(define-fun .def_1168 () Bool (not param_e2))
(define-fun .def_954 () Bool (not param_e1))
(define-fun .def_1241 () Bool (and .def_954 .def_1168))
(define-fun .def_961 () Bool (not param_e3))
(define-fun .def_1242 () Bool (and .def_961 .def_1241))
(define-fun .def_968 () Bool (not param_e4))
(define-fun .def_1243 () Bool (and .def_968 .def_1242))
(define-fun .def_1200 () Bool (not param_e5))
(define-fun .def_1244 () Bool (and .def_1200 .def_1243))
(define-fun .def_975 () Bool (not param_e6))
(define-fun .def_1245 () Bool (and .def_975 .def_1244))
(define-fun .def_931 () Bool (not param_e7))
(define-fun .def_1246 () Bool (and .def_931 .def_1245))
(define-fun .def_1114 () Bool (not param_e8))
(define-fun .def_1247 () Bool (and .def_1114 .def_1246))
(define-fun .def_942 () Bool (not param_e9))
(define-fun .def_1292 () Bool (and .def_942 .def_1247))
(define-fun .def_1284 () Bool (and param_e1 .def_1168))
(define-fun .def_1285 () Bool (and .def_961 .def_1284))
(define-fun .def_1286 () Bool (and .def_968 .def_1285))
(define-fun .def_1287 () Bool (and .def_1200 .def_1286))
(define-fun .def_1288 () Bool (and .def_975 .def_1287))
(define-fun .def_1289 () Bool (and .def_931 .def_1288))
(define-fun .def_1290 () Bool (and .def_1114 .def_1289))
(define-fun .def_1291 () Bool (and .def_942 .def_1290))
(define-fun .def_1293 () Bool (or .def_1291 .def_1292))
(define-fun .def_1276 () Bool (and .def_954 param_e2))
(define-fun .def_1277 () Bool (and .def_961 .def_1276))
(define-fun .def_1278 () Bool (and .def_968 .def_1277))
(define-fun .def_1279 () Bool (and .def_1200 .def_1278))
(define-fun .def_1280 () Bool (and .def_975 .def_1279))
(define-fun .def_1281 () Bool (and .def_931 .def_1280))
(define-fun .def_1282 () Bool (and .def_1114 .def_1281))
(define-fun .def_1283 () Bool (and .def_942 .def_1282))
(define-fun .def_1294 () Bool (or .def_1283 .def_1293))
(define-fun .def_1269 () Bool (and param_e3 .def_1241))
(define-fun .def_1270 () Bool (and .def_968 .def_1269))
(define-fun .def_1271 () Bool (and .def_1200 .def_1270))
(define-fun .def_1272 () Bool (and .def_975 .def_1271))
(define-fun .def_1273 () Bool (and .def_931 .def_1272))
(define-fun .def_1274 () Bool (and .def_1114 .def_1273))
(define-fun .def_1275 () Bool (and .def_942 .def_1274))
(define-fun .def_1295 () Bool (or .def_1275 .def_1294))
(define-fun .def_1263 () Bool (and param_e4 .def_1242))
(define-fun .def_1264 () Bool (and .def_1200 .def_1263))
(define-fun .def_1265 () Bool (and .def_975 .def_1264))
(define-fun .def_1266 () Bool (and .def_931 .def_1265))
(define-fun .def_1267 () Bool (and .def_1114 .def_1266))
(define-fun .def_1268 () Bool (and .def_942 .def_1267))
(define-fun .def_1296 () Bool (or .def_1268 .def_1295))
(define-fun .def_1258 () Bool (and param_e5 .def_1243))
(define-fun .def_1259 () Bool (and .def_975 .def_1258))
(define-fun .def_1260 () Bool (and .def_931 .def_1259))
(define-fun .def_1261 () Bool (and .def_1114 .def_1260))
(define-fun .def_1262 () Bool (and .def_942 .def_1261))
(define-fun .def_1297 () Bool (or .def_1262 .def_1296))
(define-fun .def_1254 () Bool (and param_e6 .def_1244))
(define-fun .def_1255 () Bool (and .def_931 .def_1254))
(define-fun .def_1256 () Bool (and .def_1114 .def_1255))
(define-fun .def_1257 () Bool (and .def_942 .def_1256))
(define-fun .def_1298 () Bool (or .def_1257 .def_1297))
(define-fun .def_1251 () Bool (and param_e7 .def_1245))
(define-fun .def_1252 () Bool (and .def_1114 .def_1251))
(define-fun .def_1253 () Bool (and .def_942 .def_1252))
(define-fun .def_1299 () Bool (or .def_1253 .def_1298))
(define-fun .def_1249 () Bool (and param_e8 .def_1246))
(define-fun .def_1250 () Bool (and .def_942 .def_1249))
(define-fun .def_1300 () Bool (or .def_1250 .def_1299))
(define-fun .def_1248 () Bool (and param_e9 .def_1247))
(define-fun .def_1301 () Bool (or .def_1248 .def_1300))
(define-fun .def_1302 () Bool (= call_excludes9.excludes .def_1301))
(define-fun .def_1239 () Bool (= call_ticket3i.erreur_ticket3i call_ticket3i.ite))
(define-fun .def_1237 () Bool (= call_ticket3i.flby8 call_ticket3i.a3))
(define-fun .def_1235 () Bool (= call_ticket3i.flby7 call_ticket3i.a2))
(define-fun .def_1233 () Bool (= call_ticket3i.flby6 call_ticket3i.a1))
(define-fun .def_1231 () Bool (= call_ticket3i.flby5 call_ticket3i.s))
(define-fun .def_1229 () Bool (= call_ticket3i.flby4 call_ticket3i.t))
(define-fun .def_1227 () Bool (= call_ticket3i.flby3 call_ticket3i.p3))
(define-fun .def_1225 () Bool (= call_ticket3i.flby2 call_ticket3i.p2))
(define-fun .def_1222 () Bool (= call_ticket3i.flby call_ticket3i.p1))
(define-fun .def_1216 () Bool (<= 3 call_ticket3i.p3))
(define-fun .def_1214 () Bool (<= 3 call_ticket3i.p2))
(define-fun .def_1213 () Bool (<= 3 call_ticket3i.p1))
(define-fun .def_1215 () Bool (or .def_1213 .def_1214))
(define-fun .def_1217 () Bool (or .def_1215 .def_1216))
(define-fun .def_1219 () Bool (not .def_1217))
(define-fun .def_1220 () Bool (or call_ticket3i.ite .def_1219))
(define-fun .def_1212 () Bool (not call_ticket3i.ite))
(define-fun .def_1218 () Bool (or .def_1212 .def_1217))
(define-fun .def_1221 () Bool (and .def_1218 .def_1220))
(define-fun .def_1223 () Bool (and .def_1221 .def_1222))
(define-fun .def_1207 () Bool (= call_ticket3i.ite30 call_ticket3i.ite27))
(define-fun .def_1208 () Bool (or .def_975 .def_1207))
(define-fun .def_1204 () Bool (= call_ticket3i.ite29 call_ticket3i.ite30))
(define-fun .def_1205 () Bool (or param_e6 .def_1204))
(define-fun .def_1209 () Bool (and .def_1205 .def_1208))
(define-fun .def_1199 () Bool (= call_ticket3i.ite9 call_ticket3i.ite12))
(define-fun .def_1201 () Bool (or .def_1199 .def_1200))
(define-fun .def_1196 () Bool (= call_ticket3i.ite11 call_ticket3i.ite12))
(define-fun .def_1198 () Bool (or .def_1196 param_e5))
(define-fun .def_1202 () Bool (and .def_1198 .def_1201))
(define-fun .def_1192 () Bool (= call_ticket3i.ite23 call_ticket3i.ite24))
(define-fun .def_1193 () Bool (or param_e4 .def_1192))
(define-fun .def_1189 () Bool (= call_ticket3i.ite24 call_ticket3i.ite21))
(define-fun .def_1190 () Bool (or .def_968 .def_1189))
(define-fun .def_1185 () Bool (= call_ticket3i.ite8 call_ticket3i.ite13))
(define-fun .def_1186 () Bool (or .def_968 .def_1185))
(define-fun .def_1183 () Bool (= call_ticket3i.ite13 call_ticket3i.ite12))
(define-fun .def_1184 () Bool (or param_e4 .def_1183))
(define-fun .def_1187 () Bool (and .def_1184 .def_1186))
(define-fun .def_1191 () Bool (and .def_1187 .def_1190))
(define-fun .def_1194 () Bool (and .def_1191 .def_1193))
(define-fun .def_1177 () Bool (= call_ticket3i.ite31 call_ticket3i.ite26))
(define-fun .def_1178 () Bool (or .def_961 .def_1177))
(define-fun .def_1174 () Bool (= call_ticket3i.ite31 call_ticket3i.ite30))
(define-fun .def_1175 () Bool (or param_e3 .def_1174))
(define-fun .def_1179 () Bool (and .def_1175 .def_1178))
(define-fun .def_1167 () Bool (= call_ticket3i.ite3 call_ticket3i.ite6))
(define-fun .def_1169 () Bool (or .def_1167 .def_1168))
(define-fun .def_1164 () Bool (= call_ticket3i.ite5 call_ticket3i.ite6))
(define-fun .def_1166 () Bool (or .def_1164 param_e2))
(define-fun .def_1170 () Bool (and .def_1166 .def_1169))
(define-fun .def_1160 () Bool (= call_ticket3i.ite25 call_ticket3i.ite24))
(define-fun .def_1161 () Bool (or param_e1 .def_1160))
(define-fun .def_1156 () Bool (= call_ticket3i.ite20 call_ticket3i.ite25))
(define-fun .def_1157 () Bool (or .def_954 .def_1156))
(define-fun .def_1151 () Bool (= call_ticket3i.ite2 call_ticket3i.ite7))
(define-fun .def_1152 () Bool (or .def_954 .def_1151))
(define-fun .def_1149 () Bool (= call_ticket3i.ite7 call_ticket3i.ite6))
(define-fun .def_1150 () Bool (or param_e1 .def_1149))
(define-fun .def_1153 () Bool (and .def_1150 .def_1152))
(define-fun .def_1158 () Bool (and .def_1153 .def_1157))
(define-fun .def_1162 () Bool (and .def_1158 .def_1161))
(define-fun .def_1145 () Bool (= env call_Sofar.Sofar))
(define-fun .def_1142 () Bool (= erreur_ticket3i call_ticket3i.erreur_ticket3i))
(define-fun .def_1138 () Bool (= a3 call_ticket3i.a3))
(define-fun .def_1134 () Bool (= a2 call_ticket3i.a2))
(define-fun .def_1130 () Bool (= a1 call_ticket3i.a1))
(define-fun .def_1126 () Bool (= s call_ticket3i.s))
(define-fun .def_1122 () Bool (= call_ticket3i.t t))
(define-fun .def_1119 () Bool (= p3 call_ticket3i.p3))
(define-fun .def_1113 () Bool (= call_ticket3i.ite15 call_ticket3i.ite18))
(define-fun .def_1115 () Bool (or .def_1113 .def_1114))
(define-fun .def_1110 () Bool (= call_ticket3i.ite17 call_ticket3i.ite18))
(define-fun .def_1112 () Bool (or .def_1110 param_e8))
(define-fun .def_1116 () Bool (and .def_1112 .def_1115))
(define-fun .def_1108 () Bool (= p2 call_ticket3i.p2))
(define-fun .def_1105 () Bool (= p1 call_ticket3i.p1))
(define-fun .def_1100 () Bool (= call_ticket3i.ite14 call_ticket3i.ite19))
(define-fun .def_1101 () Bool (or .def_931 .def_1100))
(define-fun .def_1098 () Bool (= call_ticket3i.ite19 call_ticket3i.ite18))
(define-fun .def_1099 () Bool (or param_e7 .def_1098))
(define-fun .def_1102 () Bool (and .def_1099 .def_1101))
(define-fun .def_1087 () Int (* (- 1) p2))
(define-fun .def_1090 () Int (+ .def_1087 p3))
(define-fun .def_1091 () Int (+ p1 .def_1090))
(define-fun .def_1092 () Bool (<= .def_1091 9))
(define-fun .def_1085 () Bool (<= p3 3))
(define-fun .def_1083 () Bool (<= 0 p3))
(define-fun .def_1080 () Bool (<= p2 3))
(define-fun .def_1078 () Bool (<= 0 p2))
(define-fun .def_1075 () Bool (<= p1 3))
(define-fun .def_1074 () Bool (<= 0 p1))
(define-fun .def_1076 () Bool (and .def_1074 .def_1075))
(define-fun .def_1079 () Bool (and .def_1076 .def_1078))
(define-fun .def_1081 () Bool (and .def_1079 .def_1080))
(define-fun .def_1084 () Bool (and .def_1081 .def_1083))
(define-fun .def_1086 () Bool (and .def_1084 .def_1085))
(define-fun .def_1093 () Bool (and .def_1086 .def_1092))
(define-fun .def_1072 () Bool (not env))
(define-fun .def_1094 () Bool (or .def_1072 .def_1093))
(define-fun .def_1095 () Bool (= _OK_ .def_1094))
(define-fun .def_1103 () Bool (and .def_1095 .def_1102))
(define-fun .def_1106 () Bool (and .def_1103 .def_1105))
(define-fun .def_1109 () Bool (and .def_1106 .def_1108))
(define-fun .def_1117 () Bool (and .def_1109 .def_1116))
(define-fun .def_1120 () Bool (and .def_1117 .def_1119))
(define-fun .def_1123 () Bool (and .def_1120 .def_1122))
(define-fun .def_1127 () Bool (and .def_1123 .def_1126))
(define-fun .def_1131 () Bool (and .def_1127 .def_1130))
(define-fun .def_1135 () Bool (and .def_1131 .def_1134))
(define-fun .def_1139 () Bool (and .def_1135 .def_1138))
(define-fun .def_1143 () Bool (and .def_1139 .def_1142))
(define-fun .def_1146 () Bool (and .def_1143 .def_1145))
(define-fun .def_1163 () Bool (and .def_1146 .def_1162))
(define-fun .def_1171 () Bool (and .def_1163 .def_1170))
(define-fun .def_1180 () Bool (and .def_1171 .def_1179))
(define-fun .def_1195 () Bool (and .def_1180 .def_1194))
(define-fun .def_1203 () Bool (and .def_1195 .def_1202))
(define-fun .def_1210 () Bool (and .def_1203 .def_1209))
(define-fun .def_1224 () Bool (and .def_1210 .def_1223))
(define-fun .def_1226 () Bool (and .def_1224 .def_1225))
(define-fun .def_1228 () Bool (and .def_1226 .def_1227))
(define-fun .def_1230 () Bool (and .def_1228 .def_1229))
(define-fun .def_1232 () Bool (and .def_1230 .def_1231))
(define-fun .def_1234 () Bool (and .def_1232 .def_1233))
(define-fun .def_1236 () Bool (and .def_1234 .def_1235))
(define-fun .def_1238 () Bool (and .def_1236 .def_1237))
(define-fun .def_1240 () Bool (and .def_1238 .def_1239))
(define-fun .def_1303 () Bool (and .def_1240 .def_1302))
(define-fun .def_1305 () Bool (and .def_1303 .def_1304))
(define-fun .def_1065 () Bool (<= 0 param_init_t))
(define-fun .def_1063 () Bool (<= 0 param_init_a3))
(define-fun .def_1061 () Bool (<= 0 param_init_a2))
(define-fun .def_1058 () Bool (<= 0 param_init_a1))
(define-fun .def_1060 () Bool (and .def_1058 call_excludes9.excludes))
(define-fun .def_1062 () Bool (and .def_1060 .def_1061))
(define-fun .def_1064 () Bool (and .def_1062 .def_1063))
(define-fun .def_1066 () Bool (and .def_1064 .def_1065))
(define-fun .def_1068 () Bool (= .def_1066 call_Sofar.flby))
(define-fun .def_1056 () Bool (= param_init_a3 call_ticket3i.flby8))
(define-fun .def_1052 () Bool (= param_init_a2 call_ticket3i.flby7))
(define-fun .def_1048 () Bool (= param_init_a1 call_ticket3i.flby6))
(define-fun .def_1044 () Bool (= call_ticket3i.t call_ticket3i.flby5))
(define-fun .def_1040 () Bool (= param_init_t call_ticket3i.flby4))
(define-fun .def_1036 () Bool (= call_ticket3i.flby3 0))
(define-fun .def_1033 () Bool (= call_ticket3i.flby2 0))
(define-fun .def_1030 () Bool (= call_ticket3i.flby 0))
(define-fun .def_1026 () Bool (= call_ticket3i.ite16 0))
(define-fun .def_1025 () Bool (not call_ticket3i.g9))
(define-fun .def_1027 () Bool (or .def_1025 .def_1026))
(define-fun .def_1021 () Bool (= call_ticket3i.ite15 2))
(define-fun .def_1019 () Bool (not call_ticket3i.g8))
(define-fun .def_1022 () Bool (or .def_1019 .def_1021))
(define-fun .def_1015 () Bool (= call_ticket3i.ite14 1))
(define-fun .def_1013 () Bool (not call_ticket3i.g7))
(define-fun .def_1016 () Bool (or .def_1013 .def_1015))
(define-fun .def_1009 () Bool (= call_ticket3i.ite10 0))
(define-fun .def_1008 () Bool (not call_ticket3i.g6))
(define-fun .def_1010 () Bool (or .def_1008 .def_1009))
(define-fun .def_1004 () Bool (= call_ticket3i.ite9 2))
(define-fun .def_1002 () Bool (not call_ticket3i.g5))
(define-fun .def_1005 () Bool (or .def_1002 .def_1004))
(define-fun .def_998 () Bool (= call_ticket3i.ite8 1))
(define-fun .def_996 () Bool (not call_ticket3i.g4))
(define-fun .def_999 () Bool (or .def_996 .def_998))
(define-fun .def_992 () Bool (= call_ticket3i.ite4 0))
(define-fun .def_991 () Bool (not call_ticket3i.g3))
(define-fun .def_993 () Bool (or .def_991 .def_992))
(define-fun .def_987 () Bool (= call_ticket3i.ite3 2))
(define-fun .def_985 () Bool (not call_ticket3i.g2))
(define-fun .def_988 () Bool (or .def_985 .def_987))
(define-fun .def_981 () Bool (= call_ticket3i.ite2 1))
(define-fun .def_979 () Bool (not call_ticket3i.g1))
(define-fun .def_982 () Bool (or .def_979 .def_981))
(define-fun .def_973 () Bool (= call_ticket3i.ite10 call_ticket3i.ite11))
(define-fun .def_976 () Bool (or .def_973 .def_975))
(define-fun .def_966 () Bool (= call_ticket3i.ite35 call_ticket3i.ite34))
(define-fun .def_969 () Bool (or .def_966 .def_968))
(define-fun .def_959 () Bool (= call_ticket3i.ite4 call_ticket3i.ite5))
(define-fun .def_962 () Bool (or .def_959 .def_961))
(define-fun .def_952 () Bool (= call_ticket3i.ite33 call_ticket3i.ite32))
(define-fun .def_955 () Bool (or .def_952 .def_954))
(define-fun .def_946 () Bool (= call_ticket3i.ite16 call_ticket3i.ite17))
(define-fun .def_947 () Bool (or .def_942 .def_946))
(define-fun .def_940 () Bool (= call_ticket3i.ite28 call_ticket3i.ite29))
(define-fun .def_943 () Bool (or .def_940 .def_942))
(define-fun .def_948 () Bool (and .def_943 .def_947))
(define-fun .def_935 () Bool (= call_ticket3i.ite22 call_ticket3i.ite23))
(define-fun .def_936 () Bool (or .def_931 .def_935))
(define-fun .def_929 () Bool (= call_ticket3i.ite37 call_ticket3i.ite36))
(define-fun .def_932 () Bool (or .def_929 .def_931))
(define-fun .def_937 () Bool (and .def_932 .def_936))
(define-fun .def_949 () Bool (and .def_937 .def_948))
(define-fun .def_956 () Bool (and .def_949 .def_955))
(define-fun .def_963 () Bool (and .def_956 .def_962))
(define-fun .def_970 () Bool (and .def_963 .def_969))
(define-fun .def_977 () Bool (and .def_970 .def_976))
(define-fun .def_983 () Bool (and .def_977 .def_982))
(define-fun .def_989 () Bool (and .def_983 .def_988))
(define-fun .def_994 () Bool (and .def_989 .def_993))
(define-fun .def_1000 () Bool (and .def_994 .def_999))
(define-fun .def_1006 () Bool (and .def_1000 .def_1005))
(define-fun .def_1011 () Bool (and .def_1006 .def_1010))
(define-fun .def_1017 () Bool (and .def_1011 .def_1016))
(define-fun .def_1023 () Bool (and .def_1017 .def_1022))
(define-fun .def_1028 () Bool (and .def_1023 .def_1027))
(define-fun .def_1031 () Bool (and .def_1028 .def_1030))
(define-fun .def_1034 () Bool (and .def_1031 .def_1033))
(define-fun .def_1037 () Bool (and .def_1034 .def_1036))
(define-fun .def_1041 () Bool (and .def_1037 .def_1040))
(define-fun .def_1045 () Bool (and .def_1041 .def_1044))
(define-fun .def_1049 () Bool (and .def_1045 .def_1048))
(define-fun .def_1053 () Bool (and .def_1049 .def_1052))
(define-fun .def_1057 () Bool (and .def_1053 .def_1056))
(define-fun .def_1069 () Bool (and .def_1057 .def_1068))
(define-fun .def_1306 () Bool (and .def_1069 .def_1305))
(assert .def_1306)
